
Gurobi 6.5.2 (win64) logging started 07/24/16 17:25:22


Gurobi 6.5.2 (win64) logging started 07/24/16 17:25:22

Optimize a model with 1213 rows, 175 columns and 2762 nonzeros
Coefficient statistics:
  Matrix range    [1e+00, 4e+02]
  Objective range [2e+00, 4e+02]
  Bounds range    [1e+00, 1e+00]
  RHS range       [1e+00, 1e+03]
Presolve removed 1146 rows and 23 columns
Presolve time: 0.00s
Presolved: 67 rows, 152 columns, 660 nonzeros
Variable types: 0 continuous, 152 integer (152 binary)

Root relaxation: objective 1.313000e+03, 78 iterations, 0.00 seconds

    Nodes    |    Current Node    |     Objective Bounds      |     Work
 Expl Unexpl |  Obj  Depth IntInf | Incumbent    BestBd   Gap | It/Node Time

*    0     0               0    1313.0000000 1313.00000  0.00%     -    0s

Explored 0 nodes (78 simplex iterations) in 0.02 seconds
Thread count was 8 (of 8 available processors)

Optimal solution found (tolerance 1.00e-04)
Best objective 1.313000000000e+03, best bound 1.313000000000e+03, gap 0.0%

Wrote requested result file 'H1\instance6\\Results6SG_Sol4.lp'

